NAME          
ROWS
 N  OBJ
 L  c1
COLUMNS
    MARKER    'MARKER'                 'INTORG'
    x[1]      c1        32
    x[1]      OBJ       -17
    x[2]      c1        485
    x[2]      OBJ       -496
    x[3]      c1        660
    x[3]      OBJ       -636
    x[4]      c1        161
    x[4]      OBJ       -88
    x[5]      c1        430
    x[5]      OBJ       -426
RHS
    rhs       c1        884
RANGES
BOUNDS
 BV bounds    x[1]
 BV bounds    x[2]
 BV bounds    x[3]
 BV bounds    x[4]
 BV bounds    x[5]
ENDATA
